objective value:                                  -11
t_n_1                                               1 	(obj:-1)
t_n_168                                             1 	(obj:-1)
t_n_351                                             1 	(obj:-1)
t_n_421                                             1 	(obj:-1)
t_n_424                                             1 	(obj:-1)
t_n_526                                             1 	(obj:-1)
t_n_584                                             1 	(obj:-1)
t_n_728                                             1 	(obj:-1)
t_n_774                                             1 	(obj:-1)
t_n_805                                             1 	(obj:-1)
t_n_906                                             1 	(obj:-1)
